148 72 59 104 168 161 115 87 12 108 170 190 114 55 150 138 31 96 179 53 133 191 78 33 6 74 178 129 166 159 154 27 100 10 73 57 76 52 187 62 28 198 175 68 189 75 56 192 45 60 70 142 4 147 63 130 167 88 37 172 152 109 194 137 30 143 34 118 80 183 95 105 26 38 106 64 101 84 131 158 171 169 162 85 15 146 42 197 98 174 176 91 14 164 67 102 89 90 177 36 7 61 1 117 50 103 39 141 153 188 19 132 160 145 136 43 3 99 83 13 44 46 29 2 92 20 11 135 54 144 94 25 81 21 69 180 140 9 113 0 121 155 173 66 157 165 184 71 156 32 151 199 51 120 22 35 107 93 48 24 97 16 127 139 185 79 23 128 196 40 126 182 181 82 47 5 17 123 8 86 110 65 124 163 195 116 49 122 193 134 119 149 186 58 111 18 112 77 41 125